100
3259
29 85
4 96
84 149
97 194
99 121
7 183
67 154
55 128
31 21
25 10
22 43
29 198
95 168
6 54
48 126
40 132
88 29
22 175
54 183
90 190
9 88
24 83
92 64
58 133
49 155
82 90
14 120
77 117
83 85
38 101
39 172
18 54
48 155
89 120
30 186
73 84
54 39
7 88
84 91
5 62
30 42
65 188
39 78
30 77
67 12
17 168
61 158
4 42
60 189
38 19
98 123
16 46
92 198
41 111
97 148
40 170
8 46
3 28
83 47
19 70
59 29
39 194
19 159
96 132
98 68
45 66
20 187
8 172
4 33
38 24
7 112
60 117
80 66
47 190
20 40
8 179
93 154
68 142
20 151
37 73
34 35
4 170
84 181
43 54
76 118
50 26
39 37
22 92
46 190
6 96
1 16
36 31
60 59
48 125
10 104
10 198
98 60
81 55
82 198
87 146
